; benchmark generated from python API
(set-info :status unknown)
(declare-fun x_months () (_ BitVec 32))
(declare-fun x_beta () (_ BitVec 32))
(declare-fun y_months () (_ BitVec 32))
(declare-fun y_beta () (_ BitVec 32))
(assert
 (bvsle (_ bv4294966096 32) x_months))
(assert
 (bvsge (_ bv1199 32) x_months))
(assert
 (bvsle (_ bv0 32) x_beta))
(assert
 (let ((?x23179 (bvadd x_months (_ bv24003 32))))
 (let ((?x38412 (bvsub ?x23179 (bvmul (bvsdiv (bvsub ?x23179 (_ bv1 32)) (_ bv12 32)) (_ bv12 32)))))
 (let ((?x2557 (ite (or (= ?x38412 (_ bv4 32)) (= ?x38412 (_ bv6 32)) (= ?x38412 (_ bv9 32)) (= ?x38412 (_ bv11 32))) (_ bv30 32) (_ bv31 32))))
 (let (($x67636 (and (= (bvsmod (bvsdiv (bvsub ?x23179 (_ bv1 32)) (_ bv12 32)) (_ bv4 32)) (_ bv0 32)) (and (distinct (bvsmod (bvsdiv (bvsub ?x23179 (_ bv1 32)) (_ bv12 32)) (_ bv100 32)) (_ bv0 32)) true))))
 (let ((?x78543 (ite (or $x67636 (= (bvsmod (bvsdiv (bvsub ?x23179 (_ bv1 32)) (_ bv12 32)) (_ bv400 32)) (_ bv0 32))) (_ bv29 32) (_ bv28 32))))
 (bvslt x_beta (ite (= ?x38412 (_ bv2 32)) ?x78543 ?x2557))))))))
(assert
 (bvsle (_ bv4294966096 32) y_months))
(assert
 (bvsge (_ bv1199 32) y_months))
(assert
 (bvsle (_ bv0 32) y_beta))
(assert
 (let ((?x21321 (bvadd y_months (_ bv24003 32))))
 (let ((?x30541 (bvsub ?x21321 (bvmul (bvsdiv (bvsub ?x21321 (_ bv1 32)) (_ bv12 32)) (_ bv12 32)))))
 (let ((?x27899 (ite (or (= ?x30541 (_ bv4 32)) (= ?x30541 (_ bv6 32)) (= ?x30541 (_ bv9 32)) (= ?x30541 (_ bv11 32))) (_ bv30 32) (_ bv31 32))))
 (let (($x87625 (and (= (bvsmod (bvsdiv (bvsub ?x21321 (_ bv1 32)) (_ bv12 32)) (_ bv4 32)) (_ bv0 32)) (and (distinct (bvsmod (bvsdiv (bvsub ?x21321 (_ bv1 32)) (_ bv12 32)) (_ bv100 32)) (_ bv0 32)) true))))
 (let ((?x81867 (ite (or $x87625 (= (bvsmod (bvsdiv (bvsub ?x21321 (_ bv1 32)) (_ bv12 32)) (_ bv400 32)) (_ bv0 32))) (_ bv29 32) (_ bv28 32))))
 (bvslt y_beta (ite (= ?x30541 (_ bv2 32)) ?x81867 ?x27899))))))))
(assert
 (and (= x_months (bvsub (bvadd (bvmul (_ bv2020 32) (_ bv12 32)) (_ bv2 32)) (_ bv24003 32))) (= (_ bv28 32) x_beta)))
(assert
 (let ((?x30236 (bvadd x_beta (_ bv1 32))))
 (let ((?x16549 (bvsdiv (bvsub (bvadd (bvadd x_months (_ bv12 32)) (_ bv24003 32)) (_ bv1 32)) (_ bv12 32))))
 (let ((?x77530 (bvadd (bvadd x_months (_ bv12 32)) (_ bv24003 32))))
 (let ((?x58995 (bvsub ?x77530 (bvmul ?x16549 (_ bv12 32)))))
 (let ((?x81938 (ite (or (= ?x58995 (_ bv4 32)) (= ?x58995 (_ bv6 32)) (= ?x58995 (_ bv9 32)) (= ?x58995 (_ bv11 32))) (_ bv30 32) (_ bv31 32))))
 (let (($x62330 (or (and (= (bvsmod ?x16549 (_ bv4 32)) (_ bv0 32)) (and (distinct (bvsmod ?x16549 (_ bv100 32)) (_ bv0 32)) true)) (= (bvsmod ?x16549 (_ bv400 32)) (_ bv0 32)))))
 (let ((?x83508 (ite (= ?x58995 (_ bv2 32)) (ite $x62330 (_ bv29 32) (_ bv28 32)) ?x81938)))
 (let ((?x56625 (ite (bvsgt (_ bv1 32) ?x30236) (_ bv1 32) (ite (bvsgt ?x30236 ?x83508) ?x83508 ?x30236))))
 (let ((?x55796 (ite (bvsgt (_ bv1 32) ?x56625) (_ bv1 32) (ite (bvsgt ?x56625 ?x83508) ?x83508 ?x56625))))
 (let ((?x87624 (ite (= (_ bv2 32) ?x58995) (ite $x62330 (_ bv31 32) (_ bv31 32)) (ite (= (_ bv1 32) ?x58995) (ite $x62330 (_ bv0 32) (_ bv0 32)) (_ bv0 32)))))
 (let ((?x42441 (ite (= (_ bv4 32) ?x58995) (ite $x62330 (_ bv91 32) (_ bv90 32)) (ite (= (_ bv3 32) ?x58995) (ite $x62330 (_ bv60 32) (_ bv59 32)) ?x87624))))
 (let ((?x85060 (ite (= (_ bv6 32) ?x58995) (ite $x62330 (_ bv152 32) (_ bv151 32)) (ite (= (_ bv5 32) ?x58995) (ite $x62330 (_ bv121 32) (_ bv120 32)) ?x42441))))
 (let ((?x66260 (ite (= (_ bv8 32) ?x58995) (ite $x62330 (_ bv213 32) (_ bv212 32)) (ite (= (_ bv7 32) ?x58995) (ite $x62330 (_ bv182 32) (_ bv181 32)) ?x85060))))
 (let ((?x82305 (ite (= (_ bv10 32) ?x58995) (ite $x62330 (_ bv274 32) (_ bv273 32)) (ite (= (_ bv9 32) ?x58995) (ite $x62330 (_ bv244 32) (_ bv243 32)) ?x66260))))
 (let ((?x88857 (ite (= (_ bv12 32) ?x58995) (ite $x62330 (_ bv335 32) (_ bv334 32)) (ite (= (_ bv11 32) ?x58995) (ite $x62330 (_ bv305 32) (_ bv304 32)) ?x82305))))
 (let ((?x66669 (bvadd (bvmul (_ bv365 32) (bvsub ?x16549 (_ bv1 32))) (bvsdiv (bvsub ?x16549 (_ bv1 32)) (_ bv4 32)))))
 (let ((?x50797 (bvadd (bvsub ?x66669 (bvsdiv (bvsub ?x16549 (_ bv1 32)) (_ bv100 32))) (bvsdiv (bvsub ?x16549 (_ bv1 32)) (_ bv400 32)))))
 (let ((?x82365 (bvadd (bvadd (bvsub (bvadd (bvadd ?x50797 ?x88857) (bvsub ?x55796 (_ bv1 32))) (_ bv730179 32)) (_ bv0 32)) (_ bv730179 32))))
 (let ((?x18559 (bvsmod ?x82365 (_ bv146097 32))))
 (let ((?x39744 (bvsdiv ?x18559 (_ bv36524 32))))
 (let ((?x44556 (ite (bvsle (_ bv4 32) ?x39744) (_ bv3 32) ?x39744)))
 (let ((?x70864 (bvsub ?x18559 (bvmul ?x44556 (_ bv36524 32)))))
 (let ((?x31997 (bvsmod ?x70864 (_ bv1461 32))))
 (let ((?x27220 (bvsdiv ?x31997 (_ bv365 32))))
 (let ((?x82276 (ite (bvsle (_ bv4 32) ?x27220) (_ bv3 32) ?x27220)))
 (let ((?x87027 (bvadd (bvadd (bvmul (bvsdiv ?x82365 (_ bv146097 32)) (_ bv400 32)) (bvmul ?x44556 (_ bv100 32))) (bvmul (bvsdiv ?x70864 (_ bv1461 32)) (_ bv4 32)))))
 (let ((?x48934 (bvadd (bvadd ?x87027 ?x82276) (_ bv1 32))))
 (let (($x77727 (or (and (= (bvsmod ?x48934 (_ bv4 32)) (_ bv0 32)) (and (distinct (bvsmod ?x48934 (_ bv100 32)) (_ bv0 32)) true)) (= (bvsmod ?x48934 (_ bv400 32)) (_ bv0 32)))))
 (let ((?x51649 (bvsub ?x31997 (bvmul ?x82276 (_ bv365 32)))))
 (let ((?x46006 (ite $x77727 (_ bv31 32) (_ bv31 32))))
 (let (($x18622 (bvsge ?x51649 ?x46006)))
 (let ((?x84426 (ite $x18622 (bvadd (bvsub ?x51649 ?x46006) (_ bv1 32)) (bvadd (bvsub ?x51649 (ite $x77727 (_ bv0 32) (_ bv0 32))) (_ bv1 32)))))
 (let ((?x45649 (ite $x77727 (_ bv60 32) (_ bv59 32))))
 (let (($x79742 (bvsge ?x51649 ?x45649)))
 (let ((?x48120 (ite $x77727 (_ bv91 32) (_ bv90 32))))
 (let (($x52788 (bvsge ?x51649 ?x48120)))
 (let ((?x77388 (ite $x52788 (bvadd (bvsub ?x51649 ?x48120) (_ bv1 32)) (ite $x79742 (bvadd (bvsub ?x51649 ?x45649) (_ bv1 32)) ?x84426))))
 (let ((?x74613 (ite $x77727 (_ bv121 32) (_ bv120 32))))
 (let (($x9150 (bvsge ?x51649 ?x74613)))
 (let ((?x8443 (ite $x77727 (_ bv152 32) (_ bv151 32))))
 (let (($x24440 (bvsge ?x51649 ?x8443)))
 (let ((?x15898 (ite $x24440 (bvadd (bvsub ?x51649 ?x8443) (_ bv1 32)) (ite $x9150 (bvadd (bvsub ?x51649 ?x74613) (_ bv1 32)) ?x77388))))
 (let ((?x53804 (ite $x77727 (_ bv182 32) (_ bv181 32))))
 (let (($x30766 (bvsge ?x51649 ?x53804)))
 (let ((?x13424 (ite $x77727 (_ bv213 32) (_ bv212 32))))
 (let (($x70268 (bvsge ?x51649 ?x13424)))
 (let ((?x44071 (ite $x70268 (bvadd (bvsub ?x51649 ?x13424) (_ bv1 32)) (ite $x30766 (bvadd (bvsub ?x51649 ?x53804) (_ bv1 32)) ?x15898))))
 (let ((?x64005 (ite $x77727 (_ bv244 32) (_ bv243 32))))
 (let (($x56677 (bvsge ?x51649 ?x64005)))
 (let ((?x58097 (ite $x77727 (_ bv274 32) (_ bv273 32))))
 (let (($x26790 (bvsge ?x51649 ?x58097)))
 (let ((?x30669 (ite $x26790 (bvadd (bvsub ?x51649 ?x58097) (_ bv1 32)) (ite $x56677 (bvadd (bvsub ?x51649 ?x64005) (_ bv1 32)) ?x44071))))
 (let ((?x17165 (ite $x77727 (_ bv305 32) (_ bv304 32))))
 (let (($x40907 (bvsge ?x51649 ?x17165)))
 (let ((?x33763 (ite $x77727 (_ bv335 32) (_ bv334 32))))
 (let (($x40796 (bvsge ?x51649 ?x33763)))
 (let ((?x56638 (ite $x40796 (bvadd (bvsub ?x51649 ?x33763) (_ bv1 32)) (ite $x40907 (bvadd (bvsub ?x51649 ?x17165) (_ bv1 32)) ?x30669))))
 (let (($x3096 (= (_ bv0 32) (_ bv0 32))))
 (let ((?x58380 (ite $x24440 (_ bv6 32) (ite $x9150 (_ bv5 32) (ite $x52788 (_ bv4 32) (ite $x79742 (_ bv3 32) (ite $x18622 (_ bv2 32) (_ bv1 32))))))))
 (let ((?x34049 (ite $x40907 (_ bv11 32) (ite $x26790 (_ bv10 32) (ite $x56677 (_ bv9 32) (ite $x70268 (_ bv8 32) (ite $x30766 (_ bv7 32) ?x58380)))))))
 (let ((?x23570 (bvadd (bvmul (ite $x3096 ?x16549 ?x48934) (_ bv12 32)) (ite $x3096 ?x58995 (ite $x40796 (_ bv12 32) ?x34049)))))
 (and (= y_months (bvsub ?x23570 (_ bv24003 32))) (= y_beta (bvsub (ite $x3096 ?x55796 ?x56638) (_ bv1 32))))))))))))))))))))))))))))))))))))))))))))))))))))))))))))))))))
(assert
 (let (($x69985 (and (= y_months (bvsub (bvadd (bvmul (_ bv2021 32) (_ bv12 32)) (_ bv2 32)) (_ bv24003 32))) (= (_ bv27 32) y_beta))))
(not $x69985)))
(check-sat)
